p cnf 37 56
-1 3 36 0 
-2 4 5 7 8 9 10 11 12 14 15 16 17 22 36 0 
-3 1 37 0 
-4 2 5 7 8 9 10 11 12 14 15 16 17 22 37 0 
-1 3 37 0 
-2 4 5 7 8 9 10 11 12 14 15 16 17 22 37 0 
-5 2 4 7 8 9 10 11 12 14 15 16 17 22 37 0 
-4 2 5 7 8 9 10 11 12 14 15 16 17 22 36 0 
-3 1 36 0 
-5 2 4 7 8 9 10 11 12 14 15 16 17 22 36 0 
-6 13 36 0 
-7 2 4 5 8 9 10 11 12 14 15 16 17 22 36 0 
-8 2 4 5 7 9 10 11 12 14 15 16 17 22 36 0 
-9 2 4 5 7 8 10 11 12 14 15 16 17 22 36 0 
-10 2 4 5 7 8 9 11 12 14 15 16 17 22 36 0 
-9 2 4 5 7 8 10 11 12 14 15 16 17 22 37 0 
-6 13 37 0 
-10 2 4 5 7 8 9 11 12 14 15 16 17 22 37 0 
-8 2 4 5 7 9 10 11 12 14 15 16 17 22 37 0 
-7 2 4 5 8 9 10 11 12 14 15 16 17 22 37 0 
-11 2 4 5 7 8 9 10 12 14 15 16 17 22 37 0 
-12 2 4 5 7 8 9 10 11 14 15 16 17 22 37 0 
-13 6 37 0 
-14 2 4 5 7 8 9 10 11 12 15 16 17 22 37 0 
-15 2 4 5 7 8 9 10 11 12 14 16 17 22 37 0 
-16 2 4 5 7 8 9 10 11 12 14 15 17 22 37 0 
-17 2 4 5 7 8 9 10 11 12 14 15 16 22 37 0 
-11 2 4 5 7 8 9 10 12 14 15 16 17 22 36 0 
-14 2 4 5 7 8 9 10 11 12 15 16 17 22 36 0 
-13 6 36 0 
-12 2 4 5 7 8 9 10 11 14 15 16 17 22 36 0 
-16 2 4 5 7 8 9 10 11 12 14 15 17 22 36 0 
-17 2 4 5 7 8 9 10 11 12 14 15 16 22 36 0 
-15 2 4 5 7 8 9 10 11 12 14 16 17 22 36 0 
-18 36 0 
-19 37 0 
-20 37 0 
-21 37 0 
-22 2 4 5 7 8 9 10 11 12 14 15 16 17 36 0 
-23 26 36 0 
-22 2 4 5 7 8 9 10 11 12 14 15 16 17 37 0 
-23 26 37 0 
-24 37 0 
-25 36 0 
-26 23 36 0 
-27 -25 36 0 
-28 36 0 
-29 37 0 
-30 37 0 
-31 36 0 
-24 36 0 
-32 -21 36 0 
-18 37 0 
-33 36 0 
-34 -21 36 0 
-35 36 0 
